Route #1: 4 45 12 50 22 26 17 49 15 19 34
Route #2: 9 16 46 13 32 38 48 2
Route #3: 44 10 29 27 8 5 51
Route #4: 33 35 43 7 37 47
Route #5: 23 14 39 21 11 28 24 31 3
Route #6: 1 18 30 20 42 40
Route #7: 36 6 25 41
Cost 755